NAME           NO_TITLE
ROWS
 N       OBJ
 G  R0000000
 G  R0000001
 G  R0000002
 G  R0000003
 L  R0000004
 L  R0000005
 L  R0000006
COLUMNS
    C0000000       OBJ  6
    C0000000  R0000000  1
    C0000000  R0000004  1
    C0000001       OBJ  2
    C0000001  R0000001  1
    C0000001  R0000004  1
    C0000002       OBJ  6
    C0000002  R0000002  1
    C0000002  R0000004  1
    C0000003       OBJ  7
    C0000003  R0000003  1
    C0000003  R0000004  1
    C0000004       OBJ  4
    C0000004  R0000000  1
    C0000004  R0000005  1
    C0000005       OBJ  9
    C0000005  R0000001  1
    C0000005  R0000005  1
    C0000006       OBJ  5
    C0000006  R0000002  1
    C0000006  R0000005  1
    C0000007       OBJ  3
    C0000007  R0000003  1
    C0000007  R0000005  1
    C0000008       OBJ  8
    C0000008  R0000000  1
    C0000008  R0000006  1
    C0000009       OBJ  8
    C0000009  R0000001  1
    C0000009  R0000006  1
    C0000010       OBJ  1
    C0000010  R0000002  1
    C0000010  R0000006  1
    C0000011       OBJ  5
    C0000011  R0000003  1
    C0000011  R0000006  1
RHS
    RHS1      R0000000  15
    RHS1      R0000001  17
    RHS1      R0000002  22
    RHS1      R0000003  12
    RHS1      R0000004  30
    RHS1      R0000005  25
    RHS1      R0000006  21
BOUNDS
ENDATA
